Version identifier: 20.1.0.0 | 2020-11-10 | 9bedb6d68
CPXPARAM_Threads                                 1
CPXPARAM_TimeLimit                               7200
CPXPARAM_MIP_Tolerances_MIPGap                   0
Generic callback                                 0x60
1 of 1 MIP starts provided solutions.
MIP start 'm1' defined initial solution with objective 3559.9516.
Tried aggregator 1 time.
Reduced MIP has 640801 rows, 640801 columns, and 1920800 nonzeros.
Reduced MIP has 800 binaries, 0 generals, 0 SOSs, and 0 indicators.
Presolve time = 0.63 sec. (607.18 ticks)
Probing time = 0.08 sec. (80.04 ticks)
Tried aggregator 1 time.
Reduced MIP has 640801 rows, 640801 columns, and 1920800 nonzeros.
Reduced MIP has 800 binaries, 0 generals, 0 SOSs, and 0 indicators.
Presolve time = 0.62 sec. (596.80 ticks)
Probing time = 0.08 sec. (80.04 ticks)
MIP emphasis: balance optimality and feasibility.
MIP search method: dynamic search.
Parallel mode: none, using 1 thread.
Root relaxation solution time = 0.21 sec. (246.83 ticks)

        Nodes                                         Cuts/
   Node  Left     Objective  IInf  Best Integer    Best Bound    ItCnt     Gap

*     0+    0                         3559.9516     4368.0000            22.70%
      0     0     3617.8321    12     3559.9516     4368.0000        0   22.70%
      0     0     3575.2420    20     3559.9516      Fract: 3      105    0.43%
Heuristic still looking.
      0     2     3574.6340    39     3559.9516     3574.6338      105    0.41%
Elapsed time = 179.50 sec. (141058.90 ticks, tree = 0.01 MB, solutions = 1)
      1     3     3568.8980    57     3559.9516     3574.6333     7261    0.41%
      2     4     3568.7766    55     3559.9516     3568.8979    13738    0.25%
      3     5     3568.7690    52     3559.9516     3568.8979    13785    0.25%
      4     6     3568.7277    24     3559.9516     3568.8979    13843    0.25%
      5     7     3568.6660    51     3559.9516     3568.8979    14240    0.25%
      6     8     3568.7114    16     3559.9516     3568.8979    14689    0.25%
      7     9     3568.6727    16     3559.9516     3568.8979    14800    0.25%
      8    10     3568.7104     2     3559.9516     3568.8979    14875    0.25%
*     9     5      integral     0     3568.7062     3568.8979    15173    0.01%
      9     5     3568.7062     0     3568.7062     3568.8979    15173    0.01%
     10     4        cutoff           3568.7062     3568.8979    15222    0.01%
Elapsed time = 459.17 sec. (309383.43 ticks, tree = 0.70 MB, solutions = 2)
     11     5     3568.8945    53     3568.7062     3568.8976    15279    0.01%
     12     6     3568.8315    39     3568.7062     3568.8976    15954    0.01%
     14     8     3568.8012    40     3568.7062     3568.8976    16196    0.01%
     16    10     3568.7733    16     3568.7062     3568.8976    16341    0.01%
*    17     5      integral     0     3568.7799     3568.8976    16785    0.00%
     18     6     3568.8889    54     3568.7799     3568.8933    16884    0.00%
     19     7     3568.8462    41     3568.7799     3568.8933    17670    0.00%
     20     8     3568.8075    35     3568.7799     3568.8933    18029    0.00%
     21     9     3568.8010    35     3568.7799     3568.8933    18123    0.00%
     23     9        cutoff           3568.7799     3568.8933    18174    0.00%
Elapsed time = 674.09 sec. (381552.39 ticks, tree = 36.07 MB, solutions = 3)
     24    10     3568.7916    29     3568.7799     3568.8933    18444    0.00%
     25    11     3568.7832    65     3568.7799     3568.8933    18781    0.00%
     28    10     3568.8278    46     3568.7799     3568.8881    19413    0.00%
     29    11     3568.7889    42     3568.7799     3568.8881    19661    0.00%
     32    10     3568.8203    57     3568.7799     3568.8461    20755    0.00%
     34    10     3568.8182    54     3568.7799     3568.8461    20830    0.00%
     35    11     3568.8061    40     3568.7799     3568.8461    21117    0.00%
     36    12     3568.7917    40     3568.7799     3568.8461    21246    0.00%
     38    11        cutoff           3568.7799     3568.8461    21298    0.00%
     39    12     3568.8389    40     3568.7799     3568.8380    21382    0.00%
Elapsed time = 833.11 sec. (435838.13 ticks, tree = 46.30 MB, solutions = 3)
*    40+   10                         3568.7906     3568.8380             0.00%
     40    12     3568.8101    19     3568.7906     3568.8324    21571    0.00%
     41    11        cutoff           3568.7906     3568.8324    21807    0.00%
     42    12     3568.8042    14     3568.7906     3568.8324    21996    0.00%
     44    12        cutoff           3568.7906     3568.8324    22055    0.00%
     45    13     3568.7986    17     3568.7906     3568.8324    22208    0.00%
     47    11        cutoff           3568.7906     3568.8324    22271    0.00%
     48    10        cutoff           3568.7906     3568.8324    22501    0.00%
     50    12     3568.8158    36     3568.7906     3568.8278    22691    0.00%
     51    13     3568.8047     4     3568.7906     3568.8278    22864    0.00%
     52    12        cutoff           3568.7906     3568.8278    23130    0.00%
Elapsed time = 952.47 sec. (491804.38 ticks, tree = 41.64 MB, solutions = 4)
*    53    10      integral     0     3568.7980     3568.8278    23376    0.00%
     53    10     3568.7980     0     3568.7980     3568.8278    23376    0.00%
     54    11     3568.8220    42     3568.7980     3568.8247    23484    0.00%
     55    12     3568.8109    40     3568.7980     3568.8247    23559    0.00%
     57    12        cutoff           3568.7980     3568.8247    23641    0.00%
     59    12     3568.8056    33     3568.7980     3568.8227    23723    0.00%
     61    10        cutoff           3568.7980     3568.8227    23808    0.00%
     62    11     3568.8150    25     3568.7980     3568.8216    23996    0.00%
     64    11        cutoff           3568.7980     3568.8216    24055    0.00%
     66     9        cutoff           3568.7980     3568.8180    24159    0.00%
     68     9     3568.8045    31     3568.7980     3568.8134    24365    0.00%
Elapsed time = 1028.12 sec. (513133.57 ticks, tree = 26.06 MB, solutions = 5)
     70     9     3568.7991    13     3568.7980     3568.8134    24440    0.00%
     73     8        cutoff           3568.7980     3568.8134    24463    0.00%
     75     8        cutoff           3568.7980     3568.8107    24551    0.00%
     76     7        cutoff           3568.7980     3568.8107    24685    0.00%
     78     5        cutoff           3568.7980     3568.8059    24761    0.00%
     79     4        cutoff           3568.7980     3568.8008    24815    0.00%
     80     5     3568.7997    31     3568.7980     3568.8008    25050    0.00%
     82     3        cutoff           3568.7980     3568.8008    25088    0.00%
     84     1        cutoff           3568.7980     3568.7989    25172    0.00%

Gomory fractional cuts applied:  1
User cuts applied:  7

Root node processing (before b&c):
  Real time             =  179.51 sec. (141028.66 ticks)
Sequential b&c:
  Real time             =  900.46 sec. (392381.12 ticks)
                          ------------
Total (root+branch&cut) = 1079.97 sec. (533409.79 ticks)
@Parameters: 
is_S_cut                                true
is_add_all_yinF                         true
is_start_value                          true
is_usercut                              true
is_visualization                        false
uc_only_rootnode                        false

data                                    Qi
fn                                      data/Qi/instance_800_800.csv
mode                                    ZLP
solver                                  cplex

p                                       50
r                                       2

EPS                                     1.0e-06
EPS_vio                                 1.0e-04
beta                                    0.10
gap                                     0.00
nodelimit                               Inf
timelimit                               7200.00


@PrintInfos
ItCnt: 25188
Current gap: 0.00 %
Termination Status: OPTIMAL
Primal Status: FEASIBLE_POINT
Solve Time: 1079.97 sec
Objective Value: 3568.797962
Number of Nodes:     86

CutInfo: [phase] num / time (sec) 
ZLP             [phase1]     0 / 0.00 [rLC]     4 / 15.61 [rUC]     3 / 9.95 [sLC]     0 / 11.32 [sUC]     5 / 316.18 
OldSubmodular   [phase1]     0 / 0.00 [rLC]     0 / 0.00 [rUC]     0 / 0.00 [sLC]     0 / 0.00 [sUC]     0 / 0.00 
NewSubmodular   [phase1]     0 / 0.00 [rLC]     0 / 0.00 [rUC]     0 / 0.00 [sLC]     0 / 0.00 [sUC]     0 / 0.00 
PMP             [phase1]     0 / 0.00 [rLC]     5 / 11.08 [rUC]     3 / 7.47 [sLC]     4 / 9.76 [sUC]    99 / 259.86 
Separation Round: [phase1] 0  [rLC] 5  [rUC] 3  [sLC] 4  [sUC] 99
Root Best Bound 3568.897906
Root Best Integer: 3559.951649
Best Bound: 3568.797962
Best Integer: 3568.797962

